results/x-long/X-n129-k18.vrp_seed-26.vrp.sol
Route #1: 47 127 28 118 38
Route #2: 82 124 7 54 6 9
Route #3: 53 123 5 122 115 117 70
Route #4: 74 14 99 42 16 12 37 8 97 24
Route #5: 64 18 59 23 1 44 90
Route #6: 91 75 103 89 66 15
Route #7: 121 111 81 36 107 128 106
Route #8: 46 33 21 34 2 48 45 19
Route #9: 93 39 25 84 43 30 67
Route #10: 22 29 58 40 55 41 61 85 101
Route #11: 26 126 71 108 72 112 102
Route #12: 65 105 104 10 79 76 11 17 110
Route #13: 62 56 13 57 35 77 60
Route #14: 3
Route #15: 83 109 51 120 69 31 125
Route #16: 20 63 87 94 4 98 68 80 119
Route #17: 32 114 73 96 95 116 92 49 100
Route #18: 86 88 113 27 52 50 78
Cost 28954.000000